COMMENT: Africa-Subproblem of 666-city TSP (Groetschel)
14.55 28.06 32.38 31.38 33.39 34.02 34.05 35.48 35.43 36.47 22.56 36.22 36.48 34.44 32.54 32.07 31.12 31.16 29.58 30.03 24.05 19.37 15.36 13.11 13.38 15.2 9 11.36 18.06 14.4 13.28 11.51 16.46 12.39 10.23 9.31 8.3 6.18 5.19 6.41 5.33 6.08 6.29 12.22 13.31 12 11.51 12.07 6.27 6.27 0.2 3.45 3.52 4.22 0.23 -4.16 -4.18 0.04 -5.54 0.3 -3.23 -1.57 0.19 -1.17 2.01 -4.03 -6.1 -6.48 -8.48 -12.44 -11.4 -12.49 -15.25 -20.09 -17.5 -15.47 -19.49 -25.58 -15.57 -37.15 -22.59 -22.34 -26.38 -24.45 -25.45 -26.15 -29.12 -29.55 -33 -33.58 -33.55 -23.21 -18.55 -12.16 -20.1 -4.38
-23.31 -15.24 -16.54 -8 -7.35 -6.51 -4.57 -5.45 -0.43 3.03 5.3 6.37 10.11 10.46 13.11 20.04 29.54 32.18 32.33 31.15 32.53 37.14 32.32 30.13 25.21 38.53 38.5 43.09 -15.57 -17.26 -16.39 -15.35 -3.01 -8 -9.18 -13.43 -13.15 -10.47 -4.02 -1.35 -0.13 1.13 2.37 -1.31 2.07 8.3 13.1 15.03 3.24 7.27 6.44 8.47 11.31 18.35 9.27 15.17 15.18 18.16 22.25 25.12 29.22 30.04 32.25 36.49 45.2 39.4 39.11 39.17 13.14 15.47 27.28 28.13 28.17 28.36 31.03 35 34.52 32.35 -5.42 -12.3 14.31 17.06 15.1 25.55 28.1 28 26.07 30.56 27.55 25.4 18.22 43.4 47.31 49.17 57.3 55.27
2892.48 2892.48 2863.44 2792.19 2654.89 2654.89 2654.89 2654.89 2601.46 2556.4 2556.4 2544.74 2544.74 2544.74 2544.74 2516.75 2516.75 2441.07 2441.07 2410.81 2410.81 2410.81 2410.81 2385.07 2385.07 2383.12 2375.62 2337.73 2326.12 2296.84 2257.47 2257.47 2257.47 2257.47 2224.27 2224.27 2224.27 2224.27 2183.31 2183.31 2183.31 2183.31 2183.31 2148.16 2148.16 2044.06 2044.06 2044.06 2044.06 2034.88 2004.15 2004.15 2004.15 1995.14 1995.14 1995.14 1995.14 1961.73 1950.98 1929.78 1919.83 1916.42 1903.69 1903.69 1903.69 1851.84 1851.84 1836.33 1836.33 1836.33 1836.33 1822.52 1822.52 1820.07 1820.07 1820.07 1746.31 1746.31 1746.31 1746.31 1746.31 1746.31 1727.64 1727.64 1727.64 1727.64 1727.64 1727.64 1727.64 1727.64 1727.64 1727.64 1727.64 1713.94 1713.94 1713.94 1689.5 1689.5 1665.73 1665.73 1665.73 1665.73 1665.73 1665.73 1662.58 1656.42 1656.42 1639.3 1618.37 1618.37 1618.37 1618.37 1618.37 1610.89 1608.94 1591.33 1591.33 1591.33 1591.33 1591.33 1591.33 1591.33 1591.33 1578.32 1578.32 1573.55 1546.48 1546.48 1524.59 1524.59 1524.59 1524.59 1524.59 1524.59 1524.59 1524.59 1524.59 1524.59 1524.59 1465.23 1465.23 1465.23 1465.23 1465.23 1465.23 1465.23 1465.23 1465.23 1444.79 1444.79 1444.79 1444.56 1444.56 1431.57 1431.57 1431.57 1431.57 1431.57 1431.57 1431.57 1429.23 1424.93 1412.33 1409.68 1409.68 1409.68 1409.68 1408.11 1408.11 1399.82 1365.16 1365.16 1365.16 1365.16 1365.16 1365.16 1365.16 1361.41 1361.41 1338.28 1338.28 1338.28 1338.28 1320.27 1320.27 1320.27 1320.27 1320.27 1320.27 1320.27 1295.54 1295.54 1295.54 1295.54 1295.54 1295.54 1241.37 1241.37 1241.37 1241.37 1241.37 1241.37 1241.37 1241.37 1241.37 1237.49 1234.57 1234.57 1234.57 1232.63 1227.46 1227.46 1199.99 1199.99 1199.99 1199.99 1199.99 1199.99 1187.34 1187.34 1187.34 1187.34 1187.34 1180.23 1180.23 1180.23 1180.23 1180.23 1162.53 1156.83 1154.13 1154.13 1154.13 1154.13 1154.13 1154.13 1138.91 1138.91 1138.91 1130.26 1130.26 1130.26 1121.56 1110.88 1110.88 1110.88 1110.88 1110.88 1110.88 1110.88 1110.88 1110.88 1106.65 1106.65 1105.34 1105.34 1105.34 1090.71 1090.71 1090.71 1090.71 1089.26 1089.26 1089.26 1089.26 1089.26 1089.26 1089.26 1089.26 1082.65 1082.65 1082.65 1082.65 1082.65 1082.65 1079.11 1079.11 1065.91 1065.91 1065.91 1065.91 1065.91 1065.91 1045.5 1045.5 1045.5 1045.5 1045.5 1045.5 1045.5 1045.5 1045.5 1045.5 1020.86 1020.86 1020.86 1020.86 1020.86 1020.86 1020.86 1020.86 1020.86 1020.86 1020.86 1020.86 1020.86 1020.86 1020.86 1020.86 1014.15 1014.15 1014.15 1014.15 1014.15 1014.15 1014.15 1010.46 1010.46 1010.46 1010.46 1005.54 1005.54 1005.54 1005.54 1005.54 1005.54 1003.72 1003.72 1003.72 1003.72 999.361 997.983 997.713 997.713 997.713 995.372 995.372 995.372 995.372 994.126 994.126 994.126 994.126 994.126 994.126 992.929 992.929 989.607 989.607 989.607 989.607 989.607 989.607 989.607 977.317 972.01 972.01 972.01 972.01 972.01 972.01 972.01 956.077 956.077 956.077 956.077 956.077 956.077 956.077 956.077 956.077 956.077 956.077 956.077 956.077 956.077 956.077 956.077 956.077 956.077 956.077 953.825 953.825 949.337 949.337 949.337 949.337 949.337 949.337 943.965 943.965 943.965 943.965 943.965 943.965 943.965 943.965 943.965 943.965 943.965 937.677 937.677 937.677 937.677 937.335 937.335 937.335 937.335 937.335 937.335 935.497 935.497 935.497 935.497 935.497 935.497 933.8 933.8 933.8 933.8 933.8 930.857 930.857 930.857 930.857 930.857 929.515 929.515 929.515 929.515 926.283 926.283 926.283 926.283 926.283 925.418 925.418 924.017 924.017 924.017 924.017 924.017 924.017 923.74 923.74 923.74 923.74 923.74 921.582 921.582 921.582 921.582 921.582 921.582 921.582 921.582 911.226 911.226 911.226 911.226 911.226 911.226 911.226 911.226 911.226 911.226 907.09 902.249 902.249 902.249 902.249 902.249 902.249 902.249 902.249 902.249 902.249 902.249 902.249 902.249 902.249 899.035 899.035 899.035 899.035 899.035 896.173 896.173 896.173 896.173 896.173 896.173 896.173 896.173 894.707 891.81 888.257 888.257 888.257 865.507 865.507 865.507 865.507 862.044 862.044 862.044 862.044 862.044 862.044 859.703 859.703 859.703 859.703 859.703 852.778 852.778 852.778 852.778 852.778 852.778 852.778 852.778 852.778 852.778 852.778 852.778 852.778 852.778 852.229 852.229 852.229 852.229 852.229 850.6 850.6 850.6 849.314 849.314 849.314 846.974 846.974 846.974 846.974 843.548 843.548 843.548 843.548 839.804 839.804 839.804 839.804 839.804 839.804 839.804 839.804 834.66 834.66 831.375 831.375 831.375 831.375 831.375 831.375 831.375 831.375 831.375 831.375 831.375 831.375 831.375 831.375 831.375 831.375 831.375 823.555 823.555 823.555 823.555 823.555 823.555 823.555 820.355 820.355 820.355 819.209 819.209 817.916 817.916 817.916 817.916 817.916 817.06 817.06 817.06 814.036 814.036 814.036 814.036 814.036 814.036 814.036 814.036 814.036 810.67 810.67 808.232 808.232 808.232 808.232 808.232 808.232 808.232 808.232 808.232 808.232 808.232 808.232 806.166 806.166 806.166 806.166 806.166 806.166 806.166 806.166 806.166 806.166 806.166 804.525 804.525 804.525 804.525 804.525 804.525 804.525 804.525 804.525 804.525 803.841 803.841 803.841 803.841 803.841 800.766 800.766 800.766 800.766 800.766 800.766 800.766 800.766 800.766 798.379 798.379 798.379 798.379 798.379 798.379 798.379 798.379 798.379 798.379 798.379 798.379 798.379 798.379 791.567 791.567 791.567 791.567 791.567 791.567 791.567 791.567 791.567 791.567 791.567 791.567 791.039 791.039 791.039 791.039 791.039 791.039 791.039 789.543 789.543 789.543 789.543 789.543 787.898 782.775 782.775 782.775 782.775 782.775 782.775 782.775 780.344 780.344 780.344 780.344 780.344 780.344 780.344 780.344 780.344 780.344 780.344 780.344 779.536 779.536 779.536 779.142 779.142 777.595 776.295 768.741 768.741 768.741 768.741 768.741 768.741 768.741 766.102 766.102 766.102 766.102 766.102 766.102 766.102 764.316 756.761 756.761 756.761 751.637 751.637 751.637 751.637 751.637 751.637 751.637 751.637 751.637 751.637 748.315 745.617 745.617 745.617 745.617 745.617 745.617 745.617 745.617 745.617 745.617 745.617 745.617 745.617 745.617 745.45 745.45 745.45 745.45 745.45 745.45 741.542 741.542 739.429 736.527 736.527 736.527 736.527 736.527 736.527 736.527 736.527 736.527 734.558 734.558 734.558 734.558 734.558 734.558 734.558 734.558 734.558 734.558 734.558 734.558 734.558 734.558 734.558 734.558 734.558 734.558 734.558 734.558 733.551 733.551 730.339 730.339 720.776 720.776 720.776 720.776 720.776 720.776 720.776 720.776 720.776 720.776 720.776 720.776 720.776 720.776 720.776 720.776 720.776 720.776 720.776 720.776 720.776 720.776 720.776 720.776 720.776 720.776 720.776 720.776 720.776 720.776 720.776 720.776 720.776 720.776 720.776 720.776 720.776 720.776 717.035 717.035 717.035 717.035 717.035 717.035 717.035 717.035 717.035 713.321 713.321 713.321 713.321 713.321 713.321 713.321 713.321 713.321 713.321 713.321 713.321 711.012 711.012 711.012 711.012 711.012 711.012 707.272 707.272 707.272 707.272 707.272 707.272 707.272 707.272 707.272 707.272 707.272 707.272 707.272 707.272 707.272 707.272 707.272 707.272 707.272 707.272 707.272 703.449 703.449 703.449 703.449 703.449 703.449 702.931 702.931 702.931 702.931 702.931 702.931 702.931 702.931 701.95 701.95 701.95 698.7 698.7 698.7 698.7 698.7 698.7 698.7 698.7 698.7 698.7 698.7 698.7 697.589 696.239 696.239 693.984 693.984 693.984 693.984 693.378 693.378 693.378 693.378 693.378 693.378 693.378 689.037 689.037 687.432 687.432 687.432 687.432 687.432 687.432 687.432 687.432 687.432 687.432 687.432 687.432 687.432 687.432 687.432 687.432 687.432 687.432 687.432 687.432 683.744 683.744 683.744 683.744 683.744 683.744 683.744 683.744 683.744 683.744 683.744 683.744 683.744 683.744 683.744 683.744 683.744 683.744 683.744 683.744 683.744 683.744 683.744 683.744 683.744 683.744 683.744 683.744 683.744 683.744 683.744 683.744 683.744 674.084 674.084 674.084 674.084 674.084 674.084 674.084 674.084 674.084 674.084 674.084 674.084 674.084 674.084 674.084 666.708 666.708 666.708 666.708 666.708 666.708 666.708 665.939 665.939 665.939 665.939 665.939 665.939 665.939 665.939 665.939 665.939 665.939 665.939 665.939 662.78 662.78 662.78 662.78 662.78 662.78 662.78 662.78 662.78 662.78 662.78 662.78 662.78 662.012 662.012 662.012 661.136 661.136 661.136 661.136 661.136 658.869 658.869 658.869 658.869 658.869 658.869 658.869 658.869 658.869 658.869 658.869 658.869 658.869 658.869 658.869 658.869 658.869 658.869 658.869 658.869 658.869 658.869 658.869 658.869 658.869 658.869 658.869 658.869 658.869 658.869 658.869 654.767 654.767 654.767 654.767 654.767 654.767 654.767 654.767 654.767 654.767 654.767 654.767 654.767 654.767 654.767 654.767 654.767 654.767 654.767 654.767 654.767 654.767 654.767 652.5 652.5 650.856 650.856 650.856 650.856 650.856 648.141 648.141 648.141 648.141 648.141 648.141 648.141 648.141 648.141 648.141 648.141 648.141 648.141 648.141 648.141 648.141 648.141 648.141 647.993 647.993 647.993 647.993 647.993 647.993 647.142 647.142 647.142 647.142 647.142 647.142 647.142 647.142 647.142 647.142 647.142 646.887 643.834 643.834 643.834 643.834 643.834 643.834 643.834 643.834 643.834 643.834 643.834 643.834 643.834 640.12 640.12 640.12 640.12 640.12 639.944 639.944 639.944 639.944 639.944 639.944 639.944 639.944 639.944 639.944 639.944 639.944 639.944 638.792 638.792 638.792 638.792 638.792 638.792 638.792 638.792 638.792 638.792 638.792 638.792 638.792 638.792 638.792 637.195 637.195 637.195 637.195 637.195 637.195 637.195 637.195 637.195 637.195 637.195 637.195 637.195 637.195 637.195 637.195 637.195 637.195 637.195 637.195 637.195 637.195 637.195 637.195 637.195 637.195 637.195 637.195 637.195 637.195 637.195 637.195 637.195 637.195 637.195 635.867 635.867 635.867 635.867 635.867 635.867 635.867 635.867 635.867 635.867 635.867 635.867 635.867 635.867 631.799 631.799 631.799 628.612 628.612 625.687 625.687 625.687 625.687 625.687 625.687 625.687 625.687 625.687 625.687 625.687 625.687 625.687 625.687 625.687 625.687 625.687 621.64 621.64 621.64 621.64 621.64 621.64 621.64 621.64 617.305 617.305 617.305 617.305 617.305 617.305 617.305 617.305 617.305 617.305 617.305 617.305 617.305 617.305 617.305 617.305 617.305 617.305 617.305 617.305 617.305 617.305 617.305 617.305 617.305 617.305 617.305 617.305 617.305 615.888 612.832 612.832 612.832 612.832 612.832 612.832 611.833 611.833 611.833 611.833 611.833 611.833 611.833 611.833 611.833 611.833 611.833 611.833 611.833 611.833 611.833 611.833 611.833 611.833 611.833 611.833 611.833 611.833 611.498 611.498 611.498 606.701 606.701 606.701 606.701 606.701 606.701 606.701 606.701 606.701 605.284 605.284 605.284 605.284 605.284 605.284 605.284 605.271 605.271 605.271 604.694 604.694 604.694 604.694 604.694 604.694 604.694 604.694 604.694 604.694 604.694 604.694 604.694 604.694 604.694 604.694 604.694 604.694 602.28 602.28 602.28 602.28 602.28 602.28 602.28 602.28 602.28 602.28 602.28 602.28 602.28 602.28 602.28 602.28 602.28 602.28 602.28 602.28 602.28 602.28 602.28 602.28 602.28 602.28 602.28 602.28 602.28 602.28 602.28 602.28 602.28 602.28 602.28 602.28 602.28 602.28 602.28 602.28 602.28 602.28 602.28 602.28 602.28 602.28 602.28 602.28 602.28 602.28 602.28 602.28 602.28 602.28 602.28 602.28 602.28 602.28 602.28 602.28 602.28 602.28 602.28 602.28 602.28 602.28 602.28 602.28 602.28 602.28 602.28 602.28 602.28 602.28 602.28 602.28 602.28 602.28 602.28 602.28 602.28 602.28 602.28 602.28 602.28 602.28 602.28 602.28 602.28 602.28 602.28 602.28 602.28 602.28 602.28 602.28 602.28 602.28 602.28 602.28 602.28 602.28 602.28 602.28 602.28 602.28 602.28 602.28 602.28 602.28 602.28 602.28 602.28 602.28 602.28 602.28 602.28 602.28 602.28 602.28 602.28 602.28 602.28 602.28 602.28 602.28 602.28 602.28 602.28 602.28 602.28 602.28 602.28 602.28 602.28 602.28 602.28 602.28 602.28 602.28 602.28 602.28 602.28 602.28 602.28 602.28 602.28 602.28 602.28 602.28 602.28 602.28 602.28 602.28 602.28 602.28 602.28 602.28 602.28 602.28 602.28 602.28 602.28 602.28 602.28 602.28 602.28 602.28 602.28 602.28 602.28 602.28 602.28 602.28 602.28 602.28 602.28 602.28 602.28 602.28 602.28 602.28 602.28 602.28 602.28 602.28 602.28 602.28 602.28 602.28 602.28 602.28 602.28 602.28 602.28 602.28 602.28 602.28 602.28 602.28 602.28 602.28 602.28 602.28 602.28 598.357 598.357 598.357 598.357 598.357 598.357 598.357 598.357 598.357 598.357 598.357 598.357 598.357 598.357 598.357 598.357 598.357 598.357 598.357 598.357 598.357 598.357 598.357 598.357 598.357 598.357 598.357 598.357 598.357 598.357 598.357 598.357 598.357 598.357 596.064 596.064 596.064 596.064 596.064 596.064 596.064 596.064 596.064 596.064 596.064 596.064 596.064 596.064 596.064 596.064 596.064 596.064 596.064 596.064 596.064 596.064 596.064 596.064 596.064 596.064 596.064 596.064 596.064 596.064 596.064 596.064 596.064 596.064 596.064 596.064 596.064 596.064 596.064 596.064 596.064 596.064 596.064 596.064 596.064 596.064 596.064 596.064 596.064 596.064 596.064 596.064 596.064 596.064 596.064 596.064 596.064 596.064 596.064 596.064 596.064 596.064 596.064 596.064 596.064 596.064 596.064 596.064 596.064 596.064 596.064 596.064 596.064 596.064 596.064 596.064 596.064 596.064 596.064 596.064 596.064 596.064 596.064 596.064 596.064 596.064 596.064 596.064 596.064 596.064 596.064 596.064 596.064 596.064 595.97 595.97 595.97 595.97 595.97 595.97 595.97 595.97 595.97 595.97 595.97 595.97 595.97 595.97 595.97 595.97 595.97 595.97 595.97 595.97 595.97 595.97 595.97 595.97 595.97 595.97 595.97 595.97 595.97 595.97 595.97 595.97 595.97 595.97 595.97 595.97 595.97 595.97 595.97 595.97 595.97 595.97 595.97 595.97 595.97 595.97 595.97 595.97 595.97 595.97 595.97 595.97 595.97 595.97 595.97 595.97 595.97 595.97 595.97 595.97 595.97 595.97 595.97 595.97 595.97 595.97 595.97 595.97 595.97 595.97 595.97 595.97 595.97 595.97 595.97 595.97 595.97 595.97 595.97 595.97 595.97 595.97 595.97 595.97 595.97 595.97 595.97 595.97 595.97 595.97 595.97 595.97 595.97 595.97 595.97 595.97 595.97 595.97 595.97 595.97 595.97 595.97 595.97 595.97 595.97 595.97 595.97 595.97 595.97 595.97 595.97 595.97 595.97 595.97 595.97 595.97 595.97 595.97 595.97 595.97 595.97 595.97 595.97 595.97 595.97 595.97 595.97 595.97 595.97 595.97 595.97 595.97 595.97 595.97 595.97 595.97 595.97 595.97 595.97 595.97 595.97 595.97 595.97 595.97 595.97 595.97 595.97 595.97 595.97 595.97 595.97 595.97 595.97 595.97 595.97 595.97 595.97 595.97 595.97 595.97 595.97 595.97 595.97 595.97 595.97 595.97 595.97 595.97 595.97 595.97 595.97 595.97 595.97 595.97 595.97 595.97 595.97 595.97 595.97 595.97 595.97 595.97 595.97 595.97 595.97 595.97 595.97 595.97 595.97 595.97 595.97 595.97 595.97 595.97 595.97 595.97 595.97 595.97 595.97 595.97 595.97 595.97 595.97 595.97 595.97 595.97 595.97 595.97 595.97 595.97 595.97 595.97 595.97 595.97 595.97 595.97 595.97 595.97 595.97 595.97 595.97 595.97 595.97 595.97 595.97 595.97 595.97 595.97 595.97 595.97 595.97 595.97 595.97 595.97 595.97 595.97 595.97 595.97 595.97 595.97 595.97 595.97 595.97 595.97 595.97 595.97 595.97 595.97 595.97 595.97 595.97 595.97 595.97 595.97 595.97 595.97 595.97 595.97 595.97 595.97 595.97 595.97 595.97 595.97 595.97 595.97 595.97 595.97 595.97 595.97 595.97 595.97 595.97 595.97 595.97 595.97 595.97 595.97 595.97 595.97 595.97 595.97 595.97 595.97 595.97 595.97 595.97 595.97 595.97 595.97 595.97 595.97 595.97 595.97 595.97 595.97 595.97 595.97 595.97 595.97 595.97 595.97 595.97 595.97 595.97
61 62 63 27 26 22 28 65 66 67 68 94 95 96 64 60 58 54 53 46 47 48 25 24 23 21 19 18 20 17 16 15 14 13 12 11 45 44 35 32 31 30 1 29 2 3 5 7 9 10 8 6 4 33 34 36 37 38 39 40 41 42 43 49 50 52 55 51 79 80 81 82 83 91 90 89 87 84 85 86 88 78 92 93 76 77 75 74 73 72 71 70 69 57 56 59
29 2 3 4 5 6 7 8 9 10 12 13 14 15 16 17 20 18 19 21 25 24 23 22 26 28 27 65 96 94 95 93 92 77 76 68 67 66 64 63 62 61 60 59 71 72 73 75 74 84 86 85 78 88 87 89 90 91 83 82 81 80 79 70 69 57 56 58 54 48 47 46 50 52 53 55 51 49 43 42 41 40 39 44 45 11 33 34 35 38 37 36 32 31 30 1
